Coin0506I Presolve 131581 (0) rows, 1892 (0) columns and 468009 (0) elements
-1.96336e+09 elements in sparse Cholesky, flop count 4.33123e+14
Solver name: Clp
Solve time: 56.364618185
Termination status: OTHER_ERROR
Result count: 1
Primal status: UNKNOWN_RESULT_STATUS
Dual status: FEASIBLE_POINT
Clp0032I Errors objective 0 - 0 iterations time 54.542
